NAME : A-n48-k7-20
TYPE : VRP-D
DIMENSION : 20
CAPACITY : 100
NODE_COORD_SECTION 
 1 47 5
 2 1 19
 3 97 35
 4 23 79
 5 77 87
 6 3 9
 7 5 27
 8 41 53
 9 51 87
 10 67 73
 11 89 45
 12 71 99
 13 11 1
 14 85 85
 15 57 11
 16 57 85
 17 71 33
 18 61 13
 19 39 15
 20 13 59
DEMAND_SECTION 
1 0 
2 20 
3 14 
4 5 
5 11 
6 22 
7 25 
8 2 
9 18 
10 10 
11 26 
12 14 
13 22 
14 9 
15 11 
16 18 
17 24 
18 15 
19 23 
20 16 
DEPOT_SECTION 
 1  
 -1  
EOF 
